<number of tasks>
50

<cycle time>
1000

<order strength>
0.597


<task times>
1 134
2 157
3 332
4 256
5 188
6 94
7 111
8 68
9 135
10 37
11 177
12 42
13 28
14 98
15 54
16 49
17 130
18 126
19 156
20 78
21 45
22 94
23 119
24 86
25 104
26 194
27 78
28 150
29 152
30 63
31 107
32 116
33 140
34 63
35 232
36 68
37 34
38 261
39 58
40 161
41 174
42 102
43 207
44 46
45 38
46 126
47 26
48 24
49 259
50 48

<precedence relations>
1,5
2,6
2,15
3,7
3,8
4,8
4,9
5,11
6,12
7,13
8,10
8,15
8,16
9,14
9,15
9,16
10,17
11,18
12,20
13,21
14,19
15,20
15,21
16,20
16,21
17,22
18,25
19,23
20,24
20,25
20,26
20,27
21,24
21,25
21,26
21,27
22,30
23,29
24,28
24,30
24,31
24,34
25,30
25,31
25,34
26,30
26,31
27,30
27,31
27,34
28,32
29,34
30,39
31,33
31,35
32,36
33,37
34,38
34,40
34,42
35,39
35,40
36,42
37,42
38,41
39,42
39,43
39,45
40,44
40,48
40,50
41,46
42,46
42,48
43,47
46,49
46,50
48,49

<end>
